c Random generated cnf formula, satisfiable: true
p cnf 10 50
8 7 -10 0
-3 -9 -4 0
-6 3 7 0
3 5 9 0
2 5 9 0
-7 1 6 0
1 -4 -3 0
10 2 -4 0
-8 2 4 0
-2 8 -3 0
-4 10 7 0
2 5 -9 0
4 7 10 0
8 10 7 0
-7 4 2 0
4 -2 5 0
8 -4 10 0
-8 9 -7 0
-10 -7 -8 0
-7 -2 -9 0
1 4 -6 0
6 -2 1 0
-6 5 8 0
-1 5 6 0
-2 9 -8 0
-1 7 4 0
5 -2 10 0
7 6 -2 0
9 6 10 0
-5 -3 6 0
2 5 -10 0
-9 10 -3 0
3 1 8 0
-9 -1 -3 0
-10 5 3 0
4 7 -3 0
-8 -5 -9 0
-10 3 8 0
2 9 -4 0
-4 6 -2 0
5 -4 -9 0
-3 -4 -5 0
-4 -1 2 0
4 10 -9 0
6 1 -9 0
4 -6 -3 0
5 10 6 0
-3 8 10 0
1 10 -6 0
-3 2 -5 0
